c turning on binary mode checking
c parsing input formula with 259840 variables and 1039924 clauses
c finished parsing, read 23255083 bytes from proof file
c detected empty clause; start verification via backward checking
c 7062 of 1039924 clauses in core                            
c 5301 of 604456 lemmas in core using 46208 resolution steps
c 0 RAT lemmas in core; 362 redundant literals in core lemmas
s VERIFIED
c verification time: 2.627 seconds
